Maximize
  - 3.1214337505 edge_0_1_0_0 - 0.0020846392157178 edge_0_3_0_0
   - 0.096285579795108 edge_0_4_0_0 - 3.5342489810112 edge_0_6_0_0
   - 0.9220062350503201 edge_0_8_0_0 - 0.3998660800944 edge_0_17_0_0
   - 0.8305041991953001 edge_0_20_0_0 - 0.322266577425 edge_1_3_0_0
   - 0.4083459146804228 edge_1_4_0_0 - 0.309331114136889 edge_1_6_0_0
   - 0.2011780791971494 edge_1_8_0_0 - 0.00630825577418628 edge_2_6_0_0
   + 0.344089772475 edge_3_1_0_0 + 4.0464862594156 edge_3_2_0_0
   + 1.8614376732 edge_3_4_0_0 + 0.8958660485161234 edge_3_5_0_0
   + 0.8786433141692612 edge_3_6_0_0 + 3.072247761296934 edge_3_7_0_0
   + 0.46922523840639 edge_3_8_0_0 + 0.4059314828903599 edge_3_10_0_0
   + 1.912147188807514 edge_3_12_0_0 - 0.39949831792176 edge_3_13_0_0
   + 0.4592434500225048 edge_3_14_0_0 + 0.1220257159203402 edge_3_16_0_0
   + 0.9650795785611791 edge_3_20_0_0 + 0.308393156635789 edge_3_23_0_0
   + 3.55677588968896 edge_3_24_0_0 + 1.384883415139778 edge_4_1_0_0
   + 2.76042972525233 edge_4_2_0_0 + 2.242670058015515 edge_4_3_0_0
   + 0.5105423034864741 edge_4_4_0_0 + 0.2056819344384287 edge_4_5_0_0
   + 3.291492263950573 edge_4_6_0_0 + 0.3746515673312505 edge_4_7_0_0
   + 3.814502278748647 edge_4_8_0_0 + 1.653090861600167 edge_4_9_0_0
   + 1.2040614471464 edge_4_10_0_0 + 1.886137405730084 edge_4_12_0_0
   + 2.888049950563489 edge_4_13_0_0 + 2.098137225621846 edge_4_14_0_0
   + 0.4831100806356068 edge_4_16_0_0 + 1.93908807463773 edge_4_17_0_0
   + 0.2870550750816988 edge_4_18_0_0 + 0.1201343347114818 edge_4_20_0_0
   + 0.5771127663658071 edge_4_23_0_0 + 4.838973857802106 edge_4_24_0_0
   - 0.2157739850102659 edge_5_4_0_0 - 0.1229341785261415 edge_5_6_0_0
   - 0.1918141153187906 edge_5_8_0_0 - 0.1207011212624108 edge_5_16_0_0
   - 1.086814426972579 edge_6_1_0_0 - 1.413927905289719 edge_6_3_0_0
   - 0.2891703209609214 edge_6_4_0_0 - 0.070099596733954 edge_6_5_0_0
   + 0.0572192837511829 edge_6_8_0_0 - 0.6236183157103434 edge_6_9_0_0
   - 0.1717819584709211 edge_6_14_0_0 - 0.00913595178798253 edge_6_16_0_0
   - 0.0877171349600907 edge_6_20_0_0 + 0.0981508002937396 edge_7_4_0_0
   + 0.0305732971323094 edge_7_5_0_0 + 0.1740473363142389 edge_7_6_0_0
   - 0.1574367888213424 edge_7_8_0_0 - 0.0137740941516986 edge_7_10_0_0
   + 0.1447388458038478 edge_7_12_0_0 - 0.017936436306244 edge_7_14_0_0
   + 0.0142052575215596 edge_7_20_0_0 + 0.4433627023719729 edge_7_24_0_0
   - 0.5066543806409255 edge_8_1_0_0 + 0.34117854315318 edge_8_3_0_0
   + 0.1726428328940016 edge_8_4_0_0 - 0.0462058985346275 edge_8_5_0_0
   + 0.1625240006016902 edge_8_6_0_0 - 0.1029794203344713 edge_8_7_0_0
   + 1.854504870705388 edge_8_9_0_0 + 1.653925926362178 edge_8_10_0_0
   + 2.586765353042298 edge_8_12_0_0 + 2.275316175463745 edge_8_13_0_0
   + 0.7732392140973295 edge_8_14_0_0 + 1.282621276248019 edge_8_16_0_0
   + 0.9921493971961504 edge_8_17_0_0 + 0.9265404491011187 edge_8_18_0_0
   - 0.0587475912854385 edge_8_20_0_0 - 0.2759601989786659 edge_8_23_0_0
   + 2.95149966955485 edge_8_24_0_0 - 0.8218629811067993 edge_9_1_0_0
   - 1.042980775840077 edge_9_3_0_0 - 0.8194597558659115 edge_9_4_0_0
   - 0.2164678933489519 edge_9_6_0_0 - 0.0260266614986461 edge_9_8_0_0
   + 0.4820213438687909 edge_9_10_0_0 + 1.29699959001003 edge_9_12_0_0
   + 0.5514943477549964 edge_9_13_0_0 + 0.0216114259440209 edge_9_14_0_0
   + 0.282131932100395 edge_9_16_0_0 - 0.0586911379791123 edge_9_17_0_0
   - 0.7964525331814409 edge_9_18_0_0 + 0.1999315284968297 edge_9_23_0_0
   + 0.489437129988807 edge_9_24_0_0 + 0.1117147301393602 edge_10_4_0_0
   + 0.4336494169124087 edge_10_6_0_0 + 0.1793952510772719 edge_10_7_0_0
   - 0.253263485468237 edge_10_8_0_0 + 1.383525445877879 edge_10_9_0_0
   + 1.113701267938132 edge_10_12_0_0 + 0.3342991201442653 edge_10_13_0_0
   + 0.1711599747595764 edge_10_14_0_0 - 0.0819199163495997 edge_10_16_0_0
   + 0.0805698699582774 edge_10_17_0_0 - 0.9299734140746868 edge_10_18_0_0
   - 0.4555379739533786 edge_10_20_0_0 - 0.7573843485117104 edge_10_23_0_0
   - 0.5801962236176431 edge_12_1_0_0 - 0.5017664527434536 edge_12_2_0_0
   + 0.4248687911803194 edge_12_3_0_0 + 1.449160490890058 edge_12_4_0_0
   + 0.2839960289250443 edge_12_5_0_0 + 0.4938194325225992 edge_12_6_0_0
   + 1.120589900543139 edge_12_7_0_0 + 0.3274109717854859 edge_12_8_0_0
   + 1.020564581080394 edge_12_9_0_0 + 3.236007752559548 edge_12_10_0_0
   + 1.017728091056614 edge_12_13_0_0 + 1.365009153748882 edge_12_14_0_0
   + 2.271919045793682 edge_12_16_0_0 + 0.6177502914971561 edge_12_17_0_0
   - 0.193827438118759 edge_12_18_0_0 + 0.2281468877341845 edge_12_20_0_0
   + 0.6633186779552618 edge_12_23_0_0 + 1.487514614586174 edge_12_24_0_0
   - 1.483876652200578 edge_13_1_0_0 - 2.036024878209972 edge_13_3_0_0
   - 1.112652934239527 edge_13_6_0_0 - 1.362579132244418 edge_13_8_0_0
   - 0.7507526722206121 edge_13_9_0_0 - 0.3639070188561384 edge_13_10_0_0
   - 0.6636171093579373 edge_13_12_0_0 + 0.677427258655222 edge_13_14_0_0
   + 0.2021386903727747 edge_13_16_0_0 + 0.1967686110652187 edge_13_17_0_0
   - 0.1004627224361962 edge_14_4_0_0 - 0.3817499490422901 edge_14_7_0_0
   - 0.021790808591234 edge_14_8_0_0 - 0.8448010809130302 edge_14_9_0_0
   - 0.9053175684874947 edge_14_10_0_0 - 0.5077851424363028 edge_14_12_0_0
   - 0.2241251104032654 edge_14_13_0_0 - 0.0885553069248445 edge_14_16_0_0
   - 0.3601878555197683 edge_14_17_0_0 - 0.0517954797805745 edge_14_18_0_0
   - 0.3709170837142644 edge_14_23_0_0 - 0.9302873825500078 edge_16_1_0_0
   + 0.0146380009542385 edge_16_2_0_0 - 0.9022871291716099 edge_16_3_0_0
   - 0.3194610903364641 edge_16_4_0_0 - 0.2008130175410529 edge_16_5_0_0
   + 0.0123794652826479 edge_16_6_0_0 - 0.457915891995773 edge_16_7_0_0
   - 0.0825125973039376 edge_16_8_0_0 - 0.0207320981319195 edge_16_9_0_0
   + 0.2534715648635019 edge_16_10_0_0 - 0.0046350730980523 edge_16_12_0_0
   - 0.029350846111098 edge_16_13_0_0 + 0.770042855927706 edge_16_14_0_0
   + 4.074042697699848 edge_16_15_0_0 + 0.5038585209851184 edge_16_17_0_0
   - 0.2401346501783233 edge_16_18_0_0 + 0.2167625761107863 edge_16_20_0_0
   + 1.880998503149003 edge_16_23_0_0 + 0.4202556469850281 edge_16_24_0_0
   + 0.2944428734998969 edge_17_1_0_0 - 0.0514458695064795 edge_17_3_0_0
   + 0.00915689969545632 edge_17_4_0_0 + 0.2127330664318756 edge_17_6_0_0
   + 0.723038288414835 edge_17_8_0_0 + 0.3501653123779684 edge_17_9_0_0
   + 0.4032658250412189 edge_17_10_0_0 + 0.5009971287478573 edge_17_12_0_0
   + 0.7314129425396966 edge_17_13_0_0 + 0.6179157863461963 edge_17_14_0_0
   + 1.693857816815303 edge_17_16_0_0 + 1.239018724489191 edge_17_18_0_0
   + 1.989001807710031 edge_17_23_0_0 + 2.580621668418746 edge_17_24_0_0
   + 0.9880418391647403 edge_18_14_0_0 - 0.0633154874269337 edge_18_16_0_0
   + 1.596374550181618 edge_18_23_0_0 + 0.2308966760089476 edge_18_24_0_0
   - 0.074278747343038 edge_20_3_0_0 + 0.1191648103011636 edge_20_4_0_0
   + 0.0579770344580827 edge_20_5_0_0 + 0.0421503562921683 edge_20_6_0_0
   + 0.298519970925848 edge_20_7_0_0 + 0.0403247849379902 edge_20_8_0_0
   - 0.2169081854571151 edge_20_10_0_0 + 0.2776399289169963 edge_20_12_0_0
   - 0.1260341392153211 edge_20_14_0_0 + 0.4152164589630586 edge_20_16_0_0
   + 1.28895452820855 edge_20_23_0_0 + 0.7542606688585076 edge_20_24_0_0
   - 1.288043714246884 edge_23_1_0_0 - 1.3007402794152 edge_23_3_0_0
   - 0.7935951719565556 edge_23_4_0_0 - 0.6122610909658718 edge_23_5_0_0
   - 0.2758193139779865 edge_23_6_0_0 - 0.7795058809815878 edge_23_9_0_0
   - 0.6780526814589874 edge_23_10_0_0 - 0.6188201124837679 edge_23_12_0_0
   + 0.8454303705573917 edge_23_14_0_0 + 0.8401284524231916 edge_23_15_0_0
   + 0.3174484903666239 edge_23_16_0_0 + 3.295376862997013 edge_23_18_0_0
   + 1.912913720510238 edge_23_19_0_0 + 0.7146889131031985 edge_23_24_0_0
   - 1.074524544118633 edge_24_18_0_0 - 1.513345581019945 edge_24_23_0_0
Subject To
 one_parent_1: edge_0_1_0_0 + edge_3_1_0_0 + edge_4_1_0_0 + edge_6_1_0_0
   + edge_8_1_0_0 + edge_9_1_0_0 + edge_12_1_0_0 + edge_13_1_0_0
   + edge_16_1_0_0 + edge_17_1_0_0 + edge_23_1_0_0 = 1
 consume_one_flow_unit_1: flow_0_1_0_0 - flow_1_3_0_0 - flow_1_4_0_0
   - flow_1_6_0_0 - flow_1_8_0_0 + flow_3_1_0_0 + flow_4_1_0_0
   + flow_6_1_0_0 + flow_8_1_0_0 + flow_9_1_0_0 + flow_12_1_0_0
   + flow_13_1_0_0 + flow_16_1_0_0 + flow_17_1_0_0 + flow_23_1_0_0 = 1
 one_parent_2: edge_3_2_0_0 + edge_4_2_0_0 + edge_12_2_0_0 + edge_16_2_0_0
   = 1
 consume_one_flow_unit_2: - flow_2_6_0_0 + flow_3_2_0_0 + flow_4_2_0_0
   + flow_12_2_0_0 + flow_16_2_0_0 = 1
 one_parent_3: edge_0_3_0_0 + edge_1_3_0_0 + edge_4_3_0_0 + edge_6_3_0_0
   + edge_8_3_0_0 + edge_9_3_0_0 + edge_12_3_0_0 + edge_13_3_0_0
   + edge_16_3_0_0 + edge_17_3_0_0 + edge_20_3_0_0 + edge_23_3_0_0 = 1
 consume_one_flow_unit_3: flow_0_3_0_0 + flow_1_3_0_0 - flow_3_1_0_0
   - flow_3_2_0_0 - flow_3_4_0_0 - flow_3_5_0_0 - flow_3_6_0_0
   - flow_3_7_0_0 - flow_3_8_0_0 - flow_3_10_0_0 - flow_3_12_0_0
   - flow_3_13_0_0 - flow_3_14_0_0 - flow_3_16_0_0 - flow_3_20_0_0
   - flow_3_23_0_0 - flow_3_24_0_0 + flow_4_3_0_0 + flow_6_3_0_0
   + flow_8_3_0_0 + flow_9_3_0_0 + flow_12_3_0_0 + flow_13_3_0_0
   + flow_16_3_0_0 + flow_17_3_0_0 + flow_20_3_0_0 + flow_23_3_0_0 = 1
 one_parent_4: edge_0_4_0_0 + edge_1_4_0_0 + edge_3_4_0_0 + edge_4_4_0_0
   + edge_5_4_0_0 + edge_6_4_0_0 + edge_7_4_0_0 + edge_8_4_0_0
   + edge_9_4_0_0 + edge_10_4_0_0 + edge_12_4_0_0 + edge_14_4_0_0
   + edge_16_4_0_0 + edge_17_4_0_0 + edge_20_4_0_0 + edge_23_4_0_0 = 1
 consume_one_flow_unit_4: flow_0_4_0_0 + flow_1_4_0_0 + flow_3_4_0_0
   - flow_4_1_0_0 - flow_4_2_0_0 - flow_4_3_0_0 - flow_4_5_0_0
   - flow_4_6_0_0 - flow_4_7_0_0 - flow_4_8_0_0 - flow_4_9_0_0
   - flow_4_10_0_0 - flow_4_12_0_0 - flow_4_13_0_0 - flow_4_14_0_0
   - flow_4_16_0_0 - flow_4_17_0_0 - flow_4_18_0_0 - flow_4_20_0_0
   - flow_4_23_0_0 - flow_4_24_0_0 + flow_5_4_0_0 + flow_6_4_0_0
   + flow_7_4_0_0 + flow_8_4_0_0 + flow_9_4_0_0 + flow_10_4_0_0
   + flow_12_4_0_0 + flow_14_4_0_0 + flow_16_4_0_0 + flow_17_4_0_0
   + flow_20_4_0_0 + flow_23_4_0_0 = 1
 one_parent_5: edge_3_5_0_0 + edge_4_5_0_0 + edge_6_5_0_0 + edge_7_5_0_0
   + edge_8_5_0_0 + edge_12_5_0_0 + edge_16_5_0_0 + edge_20_5_0_0
   + edge_23_5_0_0 = 1
 consume_one_flow_unit_5: flow_3_5_0_0 + flow_4_5_0_0 - flow_5_4_0_0
   - flow_5_6_0_0 - flow_5_8_0_0 - flow_5_16_0_0 + flow_6_5_0_0
   + flow_7_5_0_0 + flow_8_5_0_0 + flow_12_5_0_0 + flow_16_5_0_0
   + flow_20_5_0_0 + flow_23_5_0_0 = 1
 one_parent_6: edge_0_6_0_0 + edge_1_6_0_0 + edge_2_6_0_0 + edge_3_6_0_0
   + edge_4_6_0_0 + edge_5_6_0_0 + edge_7_6_0_0 + edge_8_6_0_0
   + edge_9_6_0_0 + edge_10_6_0_0 + edge_12_6_0_0 + edge_13_6_0_0
   + edge_16_6_0_0 + edge_17_6_0_0 + edge_20_6_0_0 + edge_23_6_0_0 = 1
 consume_one_flow_unit_6: flow_0_6_0_0 + flow_1_6_0_0 + flow_2_6_0_0
   + flow_3_6_0_0 + flow_4_6_0_0 + flow_5_6_0_0 - flow_6_1_0_0
   - flow_6_3_0_0 - flow_6_4_0_0 - flow_6_5_0_0 - flow_6_8_0_0
   - flow_6_9_0_0 - flow_6_14_0_0 - flow_6_16_0_0 - flow_6_20_0_0
   + flow_7_6_0_0 + flow_8_6_0_0 + flow_9_6_0_0 + flow_10_6_0_0
   + flow_12_6_0_0 + flow_13_6_0_0 + flow_16_6_0_0 + flow_17_6_0_0
   + flow_20_6_0_0 + flow_23_6_0_0 = 1
 one_parent_7: edge_3_7_0_0 + edge_4_7_0_0 + edge_8_7_0_0 + edge_10_7_0_0
   + edge_12_7_0_0 + edge_14_7_0_0 + edge_16_7_0_0 + edge_20_7_0_0 = 1
 consume_one_flow_unit_7: flow_3_7_0_0 + flow_4_7_0_0 - flow_7_4_0_0
   - flow_7_5_0_0 - flow_7_6_0_0 - flow_7_8_0_0 - flow_7_10_0_0
   - flow_7_12_0_0 - flow_7_14_0_0 - flow_7_20_0_0 - flow_7_24_0_0
   + flow_8_7_0_0 + flow_10_7_0_0 + flow_12_7_0_0 + flow_14_7_0_0
   + flow_16_7_0_0 + flow_20_7_0_0 = 1
 one_parent_8: edge_0_8_0_0 + edge_1_8_0_0 + edge_3_8_0_0 + edge_4_8_0_0
   + edge_5_8_0_0 + edge_6_8_0_0 + edge_7_8_0_0 + edge_9_8_0_0
   + edge_10_8_0_0 + edge_12_8_0_0 + edge_13_8_0_0 + edge_14_8_0_0
   + edge_16_8_0_0 + edge_17_8_0_0 + edge_20_8_0_0 = 1
 consume_one_flow_unit_8: flow_0_8_0_0 + flow_1_8_0_0 + flow_3_8_0_0
   + flow_4_8_0_0 + flow_5_8_0_0 + flow_6_8_0_0 + flow_7_8_0_0
   - flow_8_1_0_0 - flow_8_3_0_0 - flow_8_4_0_0 - flow_8_5_0_0
   - flow_8_6_0_0 - flow_8_7_0_0 - flow_8_9_0_0 - flow_8_10_0_0
   - flow_8_12_0_0 - flow_8_13_0_0 - flow_8_14_0_0 - flow_8_16_0_0
   - flow_8_17_0_0 - flow_8_18_0_0 - flow_8_20_0_0 - flow_8_23_0_0
   - flow_8_24_0_0 + flow_9_8_0_0 + flow_10_8_0_0 + flow_12_8_0_0
   + flow_13_8_0_0 + flow_14_8_0_0 + flow_16_8_0_0 + flow_17_8_0_0
   + flow_20_8_0_0 = 1
 one_parent_9: edge_4_9_0_0 + edge_6_9_0_0 + edge_8_9_0_0 + edge_10_9_0_0
   + edge_12_9_0_0 + edge_13_9_0_0 + edge_14_9_0_0 + edge_16_9_0_0
   + edge_17_9_0_0 + edge_23_9_0_0 = 1
 consume_one_flow_unit_9: flow_4_9_0_0 + flow_6_9_0_0 + flow_8_9_0_0
   - flow_9_1_0_0 - flow_9_3_0_0 - flow_9_4_0_0 - flow_9_6_0_0
   - flow_9_8_0_0 - flow_9_10_0_0 - flow_9_12_0_0 - flow_9_13_0_0
   - flow_9_14_0_0 - flow_9_16_0_0 - flow_9_17_0_0 - flow_9_18_0_0
   - flow_9_23_0_0 - flow_9_24_0_0 + flow_10_9_0_0 + flow_12_9_0_0
   + flow_13_9_0_0 + flow_14_9_0_0 + flow_16_9_0_0 + flow_17_9_0_0
   + flow_23_9_0_0 = 1
 one_parent_10: edge_3_10_0_0 + edge_4_10_0_0 + edge_7_10_0_0
   + edge_8_10_0_0 + edge_9_10_0_0 + edge_12_10_0_0 + edge_13_10_0_0
   + edge_14_10_0_0 + edge_16_10_0_0 + edge_17_10_0_0 + edge_20_10_0_0
   + edge_23_10_0_0 = 1
 consume_one_flow_unit_10: flow_3_10_0_0 + flow_4_10_0_0 + flow_7_10_0_0
   + flow_8_10_0_0 + flow_9_10_0_0 - flow_10_4_0_0 - flow_10_6_0_0
   - flow_10_7_0_0 - flow_10_8_0_0 - flow_10_9_0_0 - flow_10_12_0_0
   - flow_10_13_0_0 - flow_10_14_0_0 - flow_10_16_0_0 - flow_10_17_0_0
   - flow_10_18_0_0 - flow_10_20_0_0 - flow_10_23_0_0 + flow_12_10_0_0
   + flow_13_10_0_0 + flow_14_10_0_0 + flow_16_10_0_0 + flow_17_10_0_0
   + flow_20_10_0_0 + flow_23_10_0_0 = 1
 one_parent_11: = 1
 consume_one_flow_unit_11: = 1
 one_parent_12: edge_3_12_0_0 + edge_4_12_0_0 + edge_7_12_0_0
   + edge_8_12_0_0 + edge_9_12_0_0 + edge_10_12_0_0 + edge_13_12_0_0
   + edge_14_12_0_0 + edge_16_12_0_0 + edge_17_12_0_0 + edge_20_12_0_0
   + edge_23_12_0_0 = 1
 consume_one_flow_unit_12: flow_3_12_0_0 + flow_4_12_0_0 + flow_7_12_0_0
   + flow_8_12_0_0 + flow_9_12_0_0 + flow_10_12_0_0 - flow_12_1_0_0
   - flow_12_2_0_0 - flow_12_3_0_0 - flow_12_4_0_0 - flow_12_5_0_0
   - flow_12_6_0_0 - flow_12_7_0_0 - flow_12_8_0_0 - flow_12_9_0_0
   - flow_12_10_0_0 - flow_12_13_0_0 - flow_12_14_0_0 - flow_12_16_0_0
   - flow_12_17_0_0 - flow_12_18_0_0 - flow_12_20_0_0 - flow_12_23_0_0
   - flow_12_24_0_0 + flow_13_12_0_0 + flow_14_12_0_0 + flow_16_12_0_0
   + flow_17_12_0_0 + flow_20_12_0_0 + flow_23_12_0_0 = 1
 one_parent_13: edge_3_13_0_0 + edge_4_13_0_0 + edge_8_13_0_0
   + edge_9_13_0_0 + edge_10_13_0_0 + edge_12_13_0_0 + edge_14_13_0_0
   + edge_16_13_0_0 + edge_17_13_0_0 = 1
 consume_one_flow_unit_13: flow_3_13_0_0 + flow_4_13_0_0 + flow_8_13_0_0
   + flow_9_13_0_0 + flow_10_13_0_0 + flow_12_13_0_0 - flow_13_1_0_0
   - flow_13_3_0_0 - flow_13_6_0_0 - flow_13_8_0_0 - flow_13_9_0_0
   - flow_13_10_0_0 - flow_13_12_0_0 - flow_13_14_0_0 - flow_13_16_0_0
   - flow_13_17_0_0 + flow_14_13_0_0 + flow_16_13_0_0 + flow_17_13_0_0 = 1
 one_parent_14: edge_3_14_0_0 + edge_4_14_0_0 + edge_6_14_0_0
   + edge_7_14_0_0 + edge_8_14_0_0 + edge_9_14_0_0 + edge_10_14_0_0
   + edge_12_14_0_0 + edge_13_14_0_0 + edge_16_14_0_0 + edge_17_14_0_0
   + edge_18_14_0_0 + edge_20_14_0_0 + edge_23_14_0_0 = 1
 consume_one_flow_unit_14: flow_3_14_0_0 + flow_4_14_0_0 + flow_6_14_0_0
   + flow_7_14_0_0 + flow_8_14_0_0 + flow_9_14_0_0 + flow_10_14_0_0
   + flow_12_14_0_0 + flow_13_14_0_0 - flow_14_4_0_0 - flow_14_7_0_0
   - flow_14_8_0_0 - flow_14_9_0_0 - flow_14_10_0_0 - flow_14_12_0_0
   - flow_14_13_0_0 - flow_14_16_0_0 - flow_14_17_0_0 - flow_14_18_0_0
   - flow_14_23_0_0 + flow_16_14_0_0 + flow_17_14_0_0 + flow_18_14_0_0
   + flow_20_14_0_0 + flow_23_14_0_0 = 1
 one_parent_15: edge_16_15_0_0 + edge_23_15_0_0 = 1
 consume_one_flow_unit_15: flow_16_15_0_0 + flow_23_15_0_0 = 1
 one_parent_16: edge_3_16_0_0 + edge_4_16_0_0 + edge_5_16_0_0
   + edge_6_16_0_0 + edge_8_16_0_0 + edge_9_16_0_0 + edge_10_16_0_0
   + edge_12_16_0_0 + edge_13_16_0_0 + edge_14_16_0_0 + edge_17_16_0_0
   + edge_18_16_0_0 + edge_20_16_0_0 + edge_23_16_0_0 = 1
 consume_one_flow_unit_16: flow_3_16_0_0 + flow_4_16_0_0 + flow_5_16_0_0
   + flow_6_16_0_0 + flow_8_16_0_0 + flow_9_16_0_0 + flow_10_16_0_0
   + flow_12_16_0_0 + flow_13_16_0_0 + flow_14_16_0_0 - flow_16_1_0_0
   - flow_16_2_0_0 - flow_16_3_0_0 - flow_16_4_0_0 - flow_16_5_0_0
   - flow_16_6_0_0 - flow_16_7_0_0 - flow_16_8_0_0 - flow_16_9_0_0
   - flow_16_10_0_0 - flow_16_12_0_0 - flow_16_13_0_0 - flow_16_14_0_0
   - flow_16_15_0_0 - flow_16_17_0_0 - flow_16_18_0_0 - flow_16_20_0_0
   - flow_16_23_0_0 - flow_16_24_0_0 + flow_17_16_0_0 + flow_18_16_0_0
   + flow_20_16_0_0 + flow_23_16_0_0 = 1
 one_parent_17: edge_0_17_0_0 + edge_4_17_0_0 + edge_8_17_0_0
   + edge_9_17_0_0 + edge_10_17_0_0 + edge_12_17_0_0 + edge_13_17_0_0
   + edge_14_17_0_0 + edge_16_17_0_0 = 1
 consume_one_flow_unit_17: flow_0_17_0_0 + flow_4_17_0_0 + flow_8_17_0_0
   + flow_9_17_0_0 + flow_10_17_0_0 + flow_12_17_0_0 + flow_13_17_0_0
   + flow_14_17_0_0 + flow_16_17_0_0 - flow_17_1_0_0 - flow_17_3_0_0
   - flow_17_4_0_0 - flow_17_6_0_0 - flow_17_8_0_0 - flow_17_9_0_0
   - flow_17_10_0_0 - flow_17_12_0_0 - flow_17_13_0_0 - flow_17_14_0_0
   - flow_17_16_0_0 - flow_17_18_0_0 - flow_17_23_0_0 - flow_17_24_0_0 = 1
 one_parent_18: edge_4_18_0_0 + edge_8_18_0_0 + edge_9_18_0_0
   + edge_10_18_0_0 + edge_12_18_0_0 + edge_14_18_0_0 + edge_16_18_0_0
   + edge_17_18_0_0 + edge_23_18_0_0 + edge_24_18_0_0 = 1
 consume_one_flow_unit_18: flow_4_18_0_0 + flow_8_18_0_0 + flow_9_18_0_0
   + flow_10_18_0_0 + flow_12_18_0_0 + flow_14_18_0_0 + flow_16_18_0_0
   + flow_17_18_0_0 - flow_18_14_0_0 - flow_18_16_0_0 - flow_18_23_0_0
   - flow_18_24_0_0 + flow_23_18_0_0 + flow_24_18_0_0 = 1
 one_parent_19: edge_23_19_0_0 = 1
 consume_one_flow_unit_19: flow_23_19_0_0 = 1
 one_parent_20: edge_0_20_0_0 + edge_3_20_0_0 + edge_4_20_0_0
   + edge_6_20_0_0 + edge_7_20_0_0 + edge_8_20_0_0 + edge_10_20_0_0
   + edge_12_20_0_0 + edge_16_20_0_0 = 1
 consume_one_flow_unit_20: flow_0_20_0_0 + flow_3_20_0_0 + flow_4_20_0_0
   + flow_6_20_0_0 + flow_7_20_0_0 + flow_8_20_0_0 + flow_10_20_0_0
   + flow_12_20_0_0 + flow_16_20_0_0 - flow_20_3_0_0 - flow_20_4_0_0
   - flow_20_5_0_0 - flow_20_6_0_0 - flow_20_7_0_0 - flow_20_8_0_0
   - flow_20_10_0_0 - flow_20_12_0_0 - flow_20_14_0_0 - flow_20_16_0_0
   - flow_20_23_0_0 - flow_20_24_0_0 = 1
 one_parent_21: = 1
 consume_one_flow_unit_21: = 1
 one_parent_22: = 1
 consume_one_flow_unit_22: = 1
 one_parent_23: edge_3_23_0_0 + edge_4_23_0_0 + edge_8_23_0_0
   + edge_9_23_0_0 + edge_10_23_0_0 + edge_12_23_0_0 + edge_14_23_0_0
   + edge_16_23_0_0 + edge_17_23_0_0 + edge_18_23_0_0 + edge_20_23_0_0
   + edge_24_23_0_0 = 1
 consume_one_flow_unit_23: flow_3_23_0_0 + flow_4_23_0_0 + flow_8_23_0_0
   + flow_9_23_0_0 + flow_10_23_0_0 + flow_12_23_0_0 + flow_14_23_0_0
   + flow_16_23_0_0 + flow_17_23_0_0 + flow_18_23_0_0 + flow_20_23_0_0
   - flow_23_1_0_0 - flow_23_3_0_0 - flow_23_4_0_0 - flow_23_5_0_0
   - flow_23_6_0_0 - flow_23_9_0_0 - flow_23_10_0_0 - flow_23_12_0_0
   - flow_23_14_0_0 - flow_23_15_0_0 - flow_23_16_0_0 - flow_23_18_0_0
   - flow_23_19_0_0 - flow_23_24_0_0 + flow_24_23_0_0 = 1
 one_parent_24: edge_3_24_0_0 + edge_4_24_0_0 + edge_7_24_0_0
   + edge_8_24_0_0 + edge_9_24_0_0 + edge_12_24_0_0 + edge_16_24_0_0
   + edge_17_24_0_0 + edge_18_24_0_0 + edge_20_24_0_0 + edge_23_24_0_0 = 1
 consume_one_flow_unit_24: flow_3_24_0_0 + flow_4_24_0_0 + flow_7_24_0_0
   + flow_8_24_0_0 + flow_9_24_0_0 + flow_12_24_0_0 + flow_16_24_0_0
   + flow_17_24_0_0 + flow_18_24_0_0 + flow_20_24_0_0 + flow_23_24_0_0
   - flow_24_18_0_0 - flow_24_23_0_0 = 1
 root_flow: flow_0_1_0_0 + flow_0_3_0_0 + flow_0_4_0_0 + flow_0_6_0_0
   + flow_0_8_0_0 + flow_0_17_0_0 + flow_0_20_0_0 = 24
 inactive_no_flow_0_1_0_0: flow_0_1_0_0 - 1000 edge_0_1_0_0 <= 0
 inactive_no_flow_0_3_0_0: flow_0_3_0_0 - 1000 edge_0_3_0_0 <= 0
 inactive_no_flow_0_4_0_0: flow_0_4_0_0 - 1000 edge_0_4_0_0 <= 0
 inactive_no_flow_0_6_0_0: flow_0_6_0_0 - 1000 edge_0_6_0_0 <= 0
 inactive_no_flow_0_8_0_0: flow_0_8_0_0 - 1000 edge_0_8_0_0 <= 0
 inactive_no_flow_0_17_0_0: flow_0_17_0_0 - 1000 edge_0_17_0_0 <= 0
 inactive_no_flow_0_20_0_0: flow_0_20_0_0 - 1000 edge_0_20_0_0 <= 0
 inactive_no_flow_1_3_0_0: flow_1_3_0_0 - 1000 edge_1_3_0_0 <= 0
 inactive_no_flow_1_4_0_0: flow_1_4_0_0 - 1000 edge_1_4_0_0 <= 0
 inactive_no_flow_1_6_0_0: flow_1_6_0_0 - 1000 edge_1_6_0_0 <= 0
 inactive_no_flow_1_8_0_0: flow_1_8_0_0 - 1000 edge_1_8_0_0 <= 0
 inactive_no_flow_2_6_0_0: flow_2_6_0_0 - 1000 edge_2_6_0_0 <= 0
 inactive_no_flow_3_1_0_0: flow_3_1_0_0 - 1000 edge_3_1_0_0 <= 0
 inactive_no_flow_3_2_0_0: flow_3_2_0_0 - 1000 edge_3_2_0_0 <= 0
 inactive_no_flow_3_4_0_0: flow_3_4_0_0 - 1000 edge_3_4_0_0 <= 0
 inactive_no_flow_3_5_0_0: flow_3_5_0_0 - 1000 edge_3_5_0_0 <= 0
 inactive_no_flow_3_6_0_0: flow_3_6_0_0 - 1000 edge_3_6_0_0 <= 0
 inactive_no_flow_3_7_0_0: flow_3_7_0_0 - 1000 edge_3_7_0_0 <= 0
 inactive_no_flow_3_8_0_0: flow_3_8_0_0 - 1000 edge_3_8_0_0 <= 0
 inactive_no_flow_3_10_0_0: flow_3_10_0_0 - 1000 edge_3_10_0_0 <= 0
 inactive_no_flow_3_12_0_0: flow_3_12_0_0 - 1000 edge_3_12_0_0 <= 0
 inactive_no_flow_3_13_0_0: flow_3_13_0_0 - 1000 edge_3_13_0_0 <= 0
 inactive_no_flow_3_14_0_0: flow_3_14_0_0 - 1000 edge_3_14_0_0 <= 0
 inactive_no_flow_3_16_0_0: flow_3_16_0_0 - 1000 edge_3_16_0_0 <= 0
 inactive_no_flow_3_20_0_0: flow_3_20_0_0 - 1000 edge_3_20_0_0 <= 0
 inactive_no_flow_3_23_0_0: flow_3_23_0_0 - 1000 edge_3_23_0_0 <= 0
 inactive_no_flow_3_24_0_0: flow_3_24_0_0 - 1000 edge_3_24_0_0 <= 0
 inactive_no_flow_4_1_0_0: flow_4_1_0_0 - 1000 edge_4_1_0_0 <= 0
 inactive_no_flow_4_2_0_0: flow_4_2_0_0 - 1000 edge_4_2_0_0 <= 0
 inactive_no_flow_4_3_0_0: flow_4_3_0_0 - 1000 edge_4_3_0_0 <= 0
 inactive_no_flow_4_4_0_0: flow_4_4_0_0 - 1000 edge_4_4_0_0 <= 0
 inactive_no_flow_4_5_0_0: flow_4_5_0_0 - 1000 edge_4_5_0_0 <= 0
 inactive_no_flow_4_6_0_0: flow_4_6_0_0 - 1000 edge_4_6_0_0 <= 0
 inactive_no_flow_4_7_0_0: flow_4_7_0_0 - 1000 edge_4_7_0_0 <= 0
 inactive_no_flow_4_8_0_0: flow_4_8_0_0 - 1000 edge_4_8_0_0 <= 0
 inactive_no_flow_4_9_0_0: flow_4_9_0_0 - 1000 edge_4_9_0_0 <= 0
 inactive_no_flow_4_10_0_0: flow_4_10_0_0 - 1000 edge_4_10_0_0 <= 0
 inactive_no_flow_4_12_0_0: flow_4_12_0_0 - 1000 edge_4_12_0_0 <= 0
 inactive_no_flow_4_13_0_0: flow_4_13_0_0 - 1000 edge_4_13_0_0 <= 0
 inactive_no_flow_4_14_0_0: flow_4_14_0_0 - 1000 edge_4_14_0_0 <= 0
 inactive_no_flow_4_16_0_0: flow_4_16_0_0 - 1000 edge_4_16_0_0 <= 0
 inactive_no_flow_4_17_0_0: flow_4_17_0_0 - 1000 edge_4_17_0_0 <= 0
 inactive_no_flow_4_18_0_0: flow_4_18_0_0 - 1000 edge_4_18_0_0 <= 0
 inactive_no_flow_4_20_0_0: flow_4_20_0_0 - 1000 edge_4_20_0_0 <= 0
 inactive_no_flow_4_23_0_0: flow_4_23_0_0 - 1000 edge_4_23_0_0 <= 0
 inactive_no_flow_4_24_0_0: flow_4_24_0_0 - 1000 edge_4_24_0_0 <= 0
 inactive_no_flow_5_4_0_0: flow_5_4_0_0 - 1000 edge_5_4_0_0 <= 0
 inactive_no_flow_5_6_0_0: flow_5_6_0_0 - 1000 edge_5_6_0_0 <= 0
 inactive_no_flow_5_8_0_0: flow_5_8_0_0 - 1000 edge_5_8_0_0 <= 0
 inactive_no_flow_5_16_0_0: flow_5_16_0_0 - 1000 edge_5_16_0_0 <= 0
 inactive_no_flow_6_1_0_0: flow_6_1_0_0 - 1000 edge_6_1_0_0 <= 0
 inactive_no_flow_6_3_0_0: flow_6_3_0_0 - 1000 edge_6_3_0_0 <= 0
 inactive_no_flow_6_4_0_0: flow_6_4_0_0 - 1000 edge_6_4_0_0 <= 0
 inactive_no_flow_6_5_0_0: flow_6_5_0_0 - 1000 edge_6_5_0_0 <= 0
 inactive_no_flow_6_8_0_0: flow_6_8_0_0 - 1000 edge_6_8_0_0 <= 0
 inactive_no_flow_6_9_0_0: flow_6_9_0_0 - 1000 edge_6_9_0_0 <= 0
 inactive_no_flow_6_14_0_0: flow_6_14_0_0 - 1000 edge_6_14_0_0 <= 0
 inactive_no_flow_6_16_0_0: flow_6_16_0_0 - 1000 edge_6_16_0_0 <= 0
 inactive_no_flow_6_20_0_0: flow_6_20_0_0 - 1000 edge_6_20_0_0 <= 0
 inactive_no_flow_7_4_0_0: flow_7_4_0_0 - 1000 edge_7_4_0_0 <= 0
 inactive_no_flow_7_5_0_0: flow_7_5_0_0 - 1000 edge_7_5_0_0 <= 0
 inactive_no_flow_7_6_0_0: flow_7_6_0_0 - 1000 edge_7_6_0_0 <= 0
 inactive_no_flow_7_8_0_0: flow_7_8_0_0 - 1000 edge_7_8_0_0 <= 0
 inactive_no_flow_7_10_0_0: flow_7_10_0_0 - 1000 edge_7_10_0_0 <= 0
 inactive_no_flow_7_12_0_0: flow_7_12_0_0 - 1000 edge_7_12_0_0 <= 0
 inactive_no_flow_7_14_0_0: flow_7_14_0_0 - 1000 edge_7_14_0_0 <= 0
 inactive_no_flow_7_20_0_0: flow_7_20_0_0 - 1000 edge_7_20_0_0 <= 0
 inactive_no_flow_7_24_0_0: flow_7_24_0_0 - 1000 edge_7_24_0_0 <= 0
 inactive_no_flow_8_1_0_0: flow_8_1_0_0 - 1000 edge_8_1_0_0 <= 0
 inactive_no_flow_8_3_0_0: flow_8_3_0_0 - 1000 edge_8_3_0_0 <= 0
 inactive_no_flow_8_4_0_0: flow_8_4_0_0 - 1000 edge_8_4_0_0 <= 0
 inactive_no_flow_8_5_0_0: flow_8_5_0_0 - 1000 edge_8_5_0_0 <= 0
 inactive_no_flow_8_6_0_0: flow_8_6_0_0 - 1000 edge_8_6_0_0 <= 0
 inactive_no_flow_8_7_0_0: flow_8_7_0_0 - 1000 edge_8_7_0_0 <= 0
 inactive_no_flow_8_9_0_0: flow_8_9_0_0 - 1000 edge_8_9_0_0 <= 0
 inactive_no_flow_8_10_0_0: flow_8_10_0_0 - 1000 edge_8_10_0_0 <= 0
 inactive_no_flow_8_12_0_0: flow_8_12_0_0 - 1000 edge_8_12_0_0 <= 0
 inactive_no_flow_8_13_0_0: flow_8_13_0_0 - 1000 edge_8_13_0_0 <= 0
 inactive_no_flow_8_14_0_0: flow_8_14_0_0 - 1000 edge_8_14_0_0 <= 0
 inactive_no_flow_8_16_0_0: flow_8_16_0_0 - 1000 edge_8_16_0_0 <= 0
 inactive_no_flow_8_17_0_0: flow_8_17_0_0 - 1000 edge_8_17_0_0 <= 0
 inactive_no_flow_8_18_0_0: flow_8_18_0_0 - 1000 edge_8_18_0_0 <= 0
 inactive_no_flow_8_20_0_0: flow_8_20_0_0 - 1000 edge_8_20_0_0 <= 0
 inactive_no_flow_8_23_0_0: flow_8_23_0_0 - 1000 edge_8_23_0_0 <= 0
 inactive_no_flow_8_24_0_0: flow_8_24_0_0 - 1000 edge_8_24_0_0 <= 0
 inactive_no_flow_9_1_0_0: flow_9_1_0_0 - 1000 edge_9_1_0_0 <= 0
 inactive_no_flow_9_3_0_0: flow_9_3_0_0 - 1000 edge_9_3_0_0 <= 0
 inactive_no_flow_9_4_0_0: flow_9_4_0_0 - 1000 edge_9_4_0_0 <= 0
 inactive_no_flow_9_6_0_0: flow_9_6_0_0 - 1000 edge_9_6_0_0 <= 0
 inactive_no_flow_9_8_0_0: flow_9_8_0_0 - 1000 edge_9_8_0_0 <= 0
 inactive_no_flow_9_10_0_0: flow_9_10_0_0 - 1000 edge_9_10_0_0 <= 0
 inactive_no_flow_9_12_0_0: flow_9_12_0_0 - 1000 edge_9_12_0_0 <= 0
 inactive_no_flow_9_13_0_0: flow_9_13_0_0 - 1000 edge_9_13_0_0 <= 0
 inactive_no_flow_9_14_0_0: flow_9_14_0_0 - 1000 edge_9_14_0_0 <= 0
 inactive_no_flow_9_16_0_0: flow_9_16_0_0 - 1000 edge_9_16_0_0 <= 0
 inactive_no_flow_9_17_0_0: flow_9_17_0_0 - 1000 edge_9_17_0_0 <= 0
 inactive_no_flow_9_18_0_0: flow_9_18_0_0 - 1000 edge_9_18_0_0 <= 0
 inactive_no_flow_9_23_0_0: flow_9_23_0_0 - 1000 edge_9_23_0_0 <= 0
 inactive_no_flow_9_24_0_0: flow_9_24_0_0 - 1000 edge_9_24_0_0 <= 0
 inactive_no_flow_10_4_0_0: flow_10_4_0_0 - 1000 edge_10_4_0_0 <= 0
 inactive_no_flow_10_6_0_0: flow_10_6_0_0 - 1000 edge_10_6_0_0 <= 0
 inactive_no_flow_10_7_0_0: flow_10_7_0_0 - 1000 edge_10_7_0_0 <= 0
 inactive_no_flow_10_8_0_0: flow_10_8_0_0 - 1000 edge_10_8_0_0 <= 0
 inactive_no_flow_10_9_0_0: flow_10_9_0_0 - 1000 edge_10_9_0_0 <= 0
 inactive_no_flow_10_12_0_0: flow_10_12_0_0 - 1000 edge_10_12_0_0 <= 0
 inactive_no_flow_10_13_0_0: flow_10_13_0_0 - 1000 edge_10_13_0_0 <= 0
 inactive_no_flow_10_14_0_0: flow_10_14_0_0 - 1000 edge_10_14_0_0 <= 0
 inactive_no_flow_10_16_0_0: flow_10_16_0_0 - 1000 edge_10_16_0_0 <= 0
 inactive_no_flow_10_17_0_0: flow_10_17_0_0 - 1000 edge_10_17_0_0 <= 0
 inactive_no_flow_10_18_0_0: flow_10_18_0_0 - 1000 edge_10_18_0_0 <= 0
 inactive_no_flow_10_20_0_0: flow_10_20_0_0 - 1000 edge_10_20_0_0 <= 0
 inactive_no_flow_10_23_0_0: flow_10_23_0_0 - 1000 edge_10_23_0_0 <= 0
 inactive_no_flow_12_1_0_0: flow_12_1_0_0 - 1000 edge_12_1_0_0 <= 0
 inactive_no_flow_12_2_0_0: flow_12_2_0_0 - 1000 edge_12_2_0_0 <= 0
 inactive_no_flow_12_3_0_0: flow_12_3_0_0 - 1000 edge_12_3_0_0 <= 0
 inactive_no_flow_12_4_0_0: flow_12_4_0_0 - 1000 edge_12_4_0_0 <= 0
 inactive_no_flow_12_5_0_0: flow_12_5_0_0 - 1000 edge_12_5_0_0 <= 0
 inactive_no_flow_12_6_0_0: flow_12_6_0_0 - 1000 edge_12_6_0_0 <= 0
 inactive_no_flow_12_7_0_0: flow_12_7_0_0 - 1000 edge_12_7_0_0 <= 0
 inactive_no_flow_12_8_0_0: flow_12_8_0_0 - 1000 edge_12_8_0_0 <= 0
 inactive_no_flow_12_9_0_0: flow_12_9_0_0 - 1000 edge_12_9_0_0 <= 0
 inactive_no_flow_12_10_0_0: flow_12_10_0_0 - 1000 edge_12_10_0_0 <= 0
 inactive_no_flow_12_13_0_0: flow_12_13_0_0 - 1000 edge_12_13_0_0 <= 0
 inactive_no_flow_12_14_0_0: flow_12_14_0_0 - 1000 edge_12_14_0_0 <= 0
 inactive_no_flow_12_16_0_0: flow_12_16_0_0 - 1000 edge_12_16_0_0 <= 0
 inactive_no_flow_12_17_0_0: flow_12_17_0_0 - 1000 edge_12_17_0_0 <= 0
 inactive_no_flow_12_18_0_0: flow_12_18_0_0 - 1000 edge_12_18_0_0 <= 0
 inactive_no_flow_12_20_0_0: flow_12_20_0_0 - 1000 edge_12_20_0_0 <= 0
 inactive_no_flow_12_23_0_0: flow_12_23_0_0 - 1000 edge_12_23_0_0 <= 0
 inactive_no_flow_12_24_0_0: flow_12_24_0_0 - 1000 edge_12_24_0_0 <= 0
 inactive_no_flow_13_1_0_0: flow_13_1_0_0 - 1000 edge_13_1_0_0 <= 0
 inactive_no_flow_13_3_0_0: flow_13_3_0_0 - 1000 edge_13_3_0_0 <= 0
 inactive_no_flow_13_6_0_0: flow_13_6_0_0 - 1000 edge_13_6_0_0 <= 0
 inactive_no_flow_13_8_0_0: flow_13_8_0_0 - 1000 edge_13_8_0_0 <= 0
 inactive_no_flow_13_9_0_0: flow_13_9_0_0 - 1000 edge_13_9_0_0 <= 0
 inactive_no_flow_13_10_0_0: flow_13_10_0_0 - 1000 edge_13_10_0_0 <= 0
 inactive_no_flow_13_12_0_0: flow_13_12_0_0 - 1000 edge_13_12_0_0 <= 0
 inactive_no_flow_13_14_0_0: flow_13_14_0_0 - 1000 edge_13_14_0_0 <= 0
 inactive_no_flow_13_16_0_0: flow_13_16_0_0 - 1000 edge_13_16_0_0 <= 0
 inactive_no_flow_13_17_0_0: flow_13_17_0_0 - 1000 edge_13_17_0_0 <= 0
 inactive_no_flow_14_4_0_0: flow_14_4_0_0 - 1000 edge_14_4_0_0 <= 0
 inactive_no_flow_14_7_0_0: flow_14_7_0_0 - 1000 edge_14_7_0_0 <= 0
 inactive_no_flow_14_8_0_0: flow_14_8_0_0 - 1000 edge_14_8_0_0 <= 0
 inactive_no_flow_14_9_0_0: flow_14_9_0_0 - 1000 edge_14_9_0_0 <= 0
 inactive_no_flow_14_10_0_0: flow_14_10_0_0 - 1000 edge_14_10_0_0 <= 0
 inactive_no_flow_14_12_0_0: flow_14_12_0_0 - 1000 edge_14_12_0_0 <= 0
 inactive_no_flow_14_13_0_0: flow_14_13_0_0 - 1000 edge_14_13_0_0 <= 0
 inactive_no_flow_14_16_0_0: flow_14_16_0_0 - 1000 edge_14_16_0_0 <= 0
 inactive_no_flow_14_17_0_0: flow_14_17_0_0 - 1000 edge_14_17_0_0 <= 0
 inactive_no_flow_14_18_0_0: flow_14_18_0_0 - 1000 edge_14_18_0_0 <= 0
 inactive_no_flow_14_23_0_0: flow_14_23_0_0 - 1000 edge_14_23_0_0 <= 0
 inactive_no_flow_16_1_0_0: flow_16_1_0_0 - 1000 edge_16_1_0_0 <= 0
 inactive_no_flow_16_2_0_0: flow_16_2_0_0 - 1000 edge_16_2_0_0 <= 0
 inactive_no_flow_16_3_0_0: flow_16_3_0_0 - 1000 edge_16_3_0_0 <= 0
 inactive_no_flow_16_4_0_0: flow_16_4_0_0 - 1000 edge_16_4_0_0 <= 0
 inactive_no_flow_16_5_0_0: flow_16_5_0_0 - 1000 edge_16_5_0_0 <= 0
 inactive_no_flow_16_6_0_0: flow_16_6_0_0 - 1000 edge_16_6_0_0 <= 0
 inactive_no_flow_16_7_0_0: flow_16_7_0_0 - 1000 edge_16_7_0_0 <= 0
 inactive_no_flow_16_8_0_0: flow_16_8_0_0 - 1000 edge_16_8_0_0 <= 0
 inactive_no_flow_16_9_0_0: flow_16_9_0_0 - 1000 edge_16_9_0_0 <= 0
 inactive_no_flow_16_10_0_0: flow_16_10_0_0 - 1000 edge_16_10_0_0 <= 0
 inactive_no_flow_16_12_0_0: flow_16_12_0_0 - 1000 edge_16_12_0_0 <= 0
 inactive_no_flow_16_13_0_0: flow_16_13_0_0 - 1000 edge_16_13_0_0 <= 0
 inactive_no_flow_16_14_0_0: flow_16_14_0_0 - 1000 edge_16_14_0_0 <= 0
 inactive_no_flow_16_15_0_0: flow_16_15_0_0 - 1000 edge_16_15_0_0 <= 0
 inactive_no_flow_16_17_0_0: flow_16_17_0_0 - 1000 edge_16_17_0_0 <= 0
 inactive_no_flow_16_18_0_0: flow_16_18_0_0 - 1000 edge_16_18_0_0 <= 0
 inactive_no_flow_16_20_0_0: flow_16_20_0_0 - 1000 edge_16_20_0_0 <= 0
 inactive_no_flow_16_23_0_0: flow_16_23_0_0 - 1000 edge_16_23_0_0 <= 0
 inactive_no_flow_16_24_0_0: flow_16_24_0_0 - 1000 edge_16_24_0_0 <= 0
 inactive_no_flow_17_1_0_0: flow_17_1_0_0 - 1000 edge_17_1_0_0 <= 0
 inactive_no_flow_17_3_0_0: flow_17_3_0_0 - 1000 edge_17_3_0_0 <= 0
 inactive_no_flow_17_4_0_0: flow_17_4_0_0 - 1000 edge_17_4_0_0 <= 0
 inactive_no_flow_17_6_0_0: flow_17_6_0_0 - 1000 edge_17_6_0_0 <= 0
 inactive_no_flow_17_8_0_0: flow_17_8_0_0 - 1000 edge_17_8_0_0 <= 0
 inactive_no_flow_17_9_0_0: flow_17_9_0_0 - 1000 edge_17_9_0_0 <= 0
 inactive_no_flow_17_10_0_0: flow_17_10_0_0 - 1000 edge_17_10_0_0 <= 0
 inactive_no_flow_17_12_0_0: flow_17_12_0_0 - 1000 edge_17_12_0_0 <= 0
 inactive_no_flow_17_13_0_0: flow_17_13_0_0 - 1000 edge_17_13_0_0 <= 0
 inactive_no_flow_17_14_0_0: flow_17_14_0_0 - 1000 edge_17_14_0_0 <= 0
 inactive_no_flow_17_16_0_0: flow_17_16_0_0 - 1000 edge_17_16_0_0 <= 0
 inactive_no_flow_17_18_0_0: flow_17_18_0_0 - 1000 edge_17_18_0_0 <= 0
 inactive_no_flow_17_23_0_0: flow_17_23_0_0 - 1000 edge_17_23_0_0 <= 0
 inactive_no_flow_17_24_0_0: flow_17_24_0_0 - 1000 edge_17_24_0_0 <= 0
 inactive_no_flow_18_14_0_0: flow_18_14_0_0 - 1000 edge_18_14_0_0 <= 0
 inactive_no_flow_18_16_0_0: flow_18_16_0_0 - 1000 edge_18_16_0_0 <= 0
 inactive_no_flow_18_23_0_0: flow_18_23_0_0 - 1000 edge_18_23_0_0 <= 0
 inactive_no_flow_18_24_0_0: flow_18_24_0_0 - 1000 edge_18_24_0_0 <= 0
 inactive_no_flow_20_3_0_0: flow_20_3_0_0 - 1000 edge_20_3_0_0 <= 0
 inactive_no_flow_20_4_0_0: flow_20_4_0_0 - 1000 edge_20_4_0_0 <= 0
 inactive_no_flow_20_5_0_0: flow_20_5_0_0 - 1000 edge_20_5_0_0 <= 0
 inactive_no_flow_20_6_0_0: flow_20_6_0_0 - 1000 edge_20_6_0_0 <= 0
 inactive_no_flow_20_7_0_0: flow_20_7_0_0 - 1000 edge_20_7_0_0 <= 0
 inactive_no_flow_20_8_0_0: flow_20_8_0_0 - 1000 edge_20_8_0_0 <= 0
 inactive_no_flow_20_10_0_0: flow_20_10_0_0 - 1000 edge_20_10_0_0 <= 0
 inactive_no_flow_20_12_0_0: flow_20_12_0_0 - 1000 edge_20_12_0_0 <= 0
 inactive_no_flow_20_14_0_0: flow_20_14_0_0 - 1000 edge_20_14_0_0 <= 0
 inactive_no_flow_20_16_0_0: flow_20_16_0_0 - 1000 edge_20_16_0_0 <= 0
 inactive_no_flow_20_23_0_0: flow_20_23_0_0 - 1000 edge_20_23_0_0 <= 0
 inactive_no_flow_20_24_0_0: flow_20_24_0_0 - 1000 edge_20_24_0_0 <= 0
 inactive_no_flow_23_1_0_0: flow_23_1_0_0 - 1000 edge_23_1_0_0 <= 0
 inactive_no_flow_23_3_0_0: flow_23_3_0_0 - 1000 edge_23_3_0_0 <= 0
 inactive_no_flow_23_4_0_0: flow_23_4_0_0 - 1000 edge_23_4_0_0 <= 0
 inactive_no_flow_23_5_0_0: flow_23_5_0_0 - 1000 edge_23_5_0_0 <= 0
 inactive_no_flow_23_6_0_0: flow_23_6_0_0 - 1000 edge_23_6_0_0 <= 0
 inactive_no_flow_23_9_0_0: flow_23_9_0_0 - 1000 edge_23_9_0_0 <= 0
 inactive_no_flow_23_10_0_0: flow_23_10_0_0 - 1000 edge_23_10_0_0 <= 0
 inactive_no_flow_23_12_0_0: flow_23_12_0_0 - 1000 edge_23_12_0_0 <= 0
 inactive_no_flow_23_14_0_0: flow_23_14_0_0 - 1000 edge_23_14_0_0 <= 0
 inactive_no_flow_23_15_0_0: flow_23_15_0_0 - 1000 edge_23_15_0_0 <= 0
 inactive_no_flow_23_16_0_0: flow_23_16_0_0 - 1000 edge_23_16_0_0 <= 0
 inactive_no_flow_23_18_0_0: flow_23_18_0_0 - 1000 edge_23_18_0_0 <= 0
 inactive_no_flow_23_19_0_0: flow_23_19_0_0 - 1000 edge_23_19_0_0 <= 0
 inactive_no_flow_23_24_0_0: flow_23_24_0_0 - 1000 edge_23_24_0_0 <= 0
 inactive_no_flow_24_18_0_0: flow_24_18_0_0 - 1000 edge_24_18_0_0 <= 0
 inactive_no_flow_24_23_0_0: flow_24_23_0_0 - 1000 edge_24_23_0_0 <= 0
Bounds
Binaries
 edge_0_1_0_0 edge_0_3_0_0 edge_0_4_0_0 edge_0_6_0_0 edge_0_8_0_0
 edge_0_17_0_0 edge_0_20_0_0 edge_1_3_0_0 edge_1_4_0_0 edge_1_6_0_0
 edge_1_8_0_0 edge_2_6_0_0 edge_3_1_0_0 edge_3_2_0_0 edge_3_4_0_0
 edge_3_5_0_0 edge_3_6_0_0 edge_3_7_0_0 edge_3_8_0_0 edge_3_10_0_0
 edge_3_12_0_0 edge_3_13_0_0 edge_3_14_0_0 edge_3_16_0_0 edge_3_20_0_0
 edge_3_23_0_0 edge_3_24_0_0 edge_4_1_0_0 edge_4_2_0_0 edge_4_3_0_0
 edge_4_4_0_0 edge_4_5_0_0 edge_4_6_0_0 edge_4_7_0_0 edge_4_8_0_0
 edge_4_9_0_0 edge_4_10_0_0 edge_4_12_0_0 edge_4_13_0_0 edge_4_14_0_0
 edge_4_16_0_0 edge_4_17_0_0 edge_4_18_0_0 edge_4_20_0_0 edge_4_23_0_0
 edge_4_24_0_0 edge_5_4_0_0 edge_5_6_0_0 edge_5_8_0_0 edge_5_16_0_0
 edge_6_1_0_0 edge_6_3_0_0 edge_6_4_0_0 edge_6_5_0_0 edge_6_8_0_0
 edge_6_9_0_0 edge_6_14_0_0 edge_6_16_0_0 edge_6_20_0_0 edge_7_4_0_0
 edge_7_5_0_0 edge_7_6_0_0 edge_7_8_0_0 edge_7_10_0_0 edge_7_12_0_0
 edge_7_14_0_0 edge_7_20_0_0 edge_7_24_0_0 edge_8_1_0_0 edge_8_3_0_0
 edge_8_4_0_0 edge_8_5_0_0 edge_8_6_0_0 edge_8_7_0_0 edge_8_9_0_0
 edge_8_10_0_0 edge_8_12_0_0 edge_8_13_0_0 edge_8_14_0_0 edge_8_16_0_0
 edge_8_17_0_0 edge_8_18_0_0 edge_8_20_0_0 edge_8_23_0_0 edge_8_24_0_0
 edge_9_1_0_0 edge_9_3_0_0 edge_9_4_0_0 edge_9_6_0_0 edge_9_8_0_0
 edge_9_10_0_0 edge_9_12_0_0 edge_9_13_0_0 edge_9_14_0_0 edge_9_16_0_0
 edge_9_17_0_0 edge_9_18_0_0 edge_9_23_0_0 edge_9_24_0_0 edge_10_4_0_0
 edge_10_6_0_0 edge_10_7_0_0 edge_10_8_0_0 edge_10_9_0_0 edge_10_12_0_0
 edge_10_13_0_0 edge_10_14_0_0 edge_10_16_0_0 edge_10_17_0_0 edge_10_18_0_0
 edge_10_20_0_0 edge_10_23_0_0 edge_12_1_0_0 edge_12_2_0_0 edge_12_3_0_0
 edge_12_4_0_0 edge_12_5_0_0 edge_12_6_0_0 edge_12_7_0_0 edge_12_8_0_0
 edge_12_9_0_0 edge_12_10_0_0 edge_12_13_0_0 edge_12_14_0_0 edge_12_16_0_0
 edge_12_17_0_0 edge_12_18_0_0 edge_12_20_0_0 edge_12_23_0_0 edge_12_24_0_0
 edge_13_1_0_0 edge_13_3_0_0 edge_13_6_0_0 edge_13_8_0_0 edge_13_9_0_0
 edge_13_10_0_0 edge_13_12_0_0 edge_13_14_0_0 edge_13_16_0_0 edge_13_17_0_0
 edge_14_4_0_0 edge_14_7_0_0 edge_14_8_0_0 edge_14_9_0_0 edge_14_10_0_0
 edge_14_12_0_0 edge_14_13_0_0 edge_14_16_0_0 edge_14_17_0_0 edge_14_18_0_0
 edge_14_23_0_0 edge_16_1_0_0 edge_16_2_0_0 edge_16_3_0_0 edge_16_4_0_0
 edge_16_5_0_0 edge_16_6_0_0 edge_16_7_0_0 edge_16_8_0_0 edge_16_9_0_0
 edge_16_10_0_0 edge_16_12_0_0 edge_16_13_0_0 edge_16_14_0_0 edge_16_15_0_0
 edge_16_17_0_0 edge_16_18_0_0 edge_16_20_0_0 edge_16_23_0_0 edge_16_24_0_0
 edge_17_1_0_0 edge_17_3_0_0 edge_17_4_0_0 edge_17_6_0_0 edge_17_8_0_0
 edge_17_9_0_0 edge_17_10_0_0 edge_17_12_0_0 edge_17_13_0_0 edge_17_14_0_0
 edge_17_16_0_0 edge_17_18_0_0 edge_17_23_0_0 edge_17_24_0_0 edge_18_14_0_0
 edge_18_16_0_0 edge_18_23_0_0 edge_18_24_0_0 edge_20_3_0_0 edge_20_4_0_0
 edge_20_5_0_0 edge_20_6_0_0 edge_20_7_0_0 edge_20_8_0_0 edge_20_10_0_0
 edge_20_12_0_0 edge_20_14_0_0 edge_20_16_0_0 edge_20_23_0_0 edge_20_24_0_0
 edge_23_1_0_0 edge_23_3_0_0 edge_23_4_0_0 edge_23_5_0_0 edge_23_6_0_0
 edge_23_9_0_0 edge_23_10_0_0 edge_23_12_0_0 edge_23_14_0_0 edge_23_15_0_0
 edge_23_16_0_0 edge_23_18_0_0 edge_23_19_0_0 edge_23_24_0_0 edge_24_18_0_0
 edge_24_23_0_0
End
